7267
7249
7105
7270
7198
7062
7256
7206
7268
7257
7171
7123
7239
7295
7291
7303
7232
7150
7205
7181
7235
7209
7307
7155
7183
7271
7238
7244
7341
7262
7177
7215
7167
7188
7103
7200
7284
7176
7222
7129
7311
7166
7222
7337
7222
7234
7179
7169
7179
7280
7214
7045
7357
7145
7208
7037
7234
7121
7222
7109
7103
7279
7239
7260
6994
7297
6972
7280
7154
7234
7273
7284
7132
7209
7293
7268
7160
7227
7228
7270
7254
7232
7208
7092
7246
7301
7015
7238
7127
7217
7125
7152
7144
7324
7273
7288
7176
7123
7225
7220
